min: c;

c = 3.76019218528623 * u5_t4_h2 + 3.76019218528623 * u5_t7_h2 + 2.92149744174007 * u5_t4_h3 + 2.92149744174007 * u5_t7_h3 + 3.37579931041322 * u5_t1_h4 + 3.37579931041322 * u5_t3_h4 + 3.37579931041322 * u5_t4_h4 + 3.37579931041322 * u5_t7_h4 + 3.90980868865498 * u5_t1_h5 + 3.90980868865498 * u5_t3_h5 + 3.90980868865498 * u5_t4_h5 + 3.90980868865498 * u5_t7_h5 + 4.21921017220843 * u5_t1_h6 + 4.21921017220843 * u5_t3_h6 + 4.21921017220843 * u5_t4_h6 + 4.21921017220843 * u5_t6_h6 + 4.21921017220843 * u5_t7_h6 + 3.71888973823202 * u5_t1_h7 + 3.71888973823202 * u5_t3_h7 + 3.71888973823202 * u5_t4_h7 + 3.71888973823202 * u5_t6_h7 + 5.55683668047545 * u5_t1_h8 + 5.55683668047545 * u5_t3_h8 + 5.55683668047545 * u5_t4_h8 + 5.55683668047545 * u5_t6_h8 + 5.41908433499113 * u5_t1_h9 + 5.41908433499113 * u5_t3_h9 + 5.41908433499113 * u5_t4_h9 + 5.41908433499113 * u5_t6_h9 + 5.15172332174105 * u5_t1_h10 + 5.15172332174105 * u5_t3_h10 + 5.15172332174105 * u5_t4_h10 + 5.15172332174105 * u5_t6_h10 + 3.48955240614058 * u5_t1_h11 + 3.48955240614058 * u5_t3_h11 + 3.48955240614058 * u5_t4_h11 + 3.48955240614058 * u5_t6_h11 + 5.95075516621108 * u5_t1_h12 + 5.95075516621108 * u5_t3_h12 + 5.95075516621108 * u5_t4_h12 + 5.95075516621108 * u5_t6_h12 + 4.83252396257116 * u5_t1_h13 + 4.83252396257116 * u5_t3_h13 + 4.83252396257116 * u5_t4_h13 + 4.83252396257116 * u5_t6_h13 + 4.83252396257116 * u5_t8_h13 + 5.23838138964465 * u5_t1_h14 + 5.23838138964465 * u5_t3_h14 + 5.23838138964465 * u5_t4_h14 + 5.23838138964465 * u5_t6_h14 + 5.23838138964465 * u5_t8_h14 + 5.92721682878892 * u5_t1_h15 + 5.92721682878892 * u5_t3_h15 + 5.92721682878892 * u5_t4_h15 + 5.92721682878892 * u5_t6_h15 + 5.92721682878892 * u5_t8_h15 + 5.92721682878892 * u5_t9_h15 + 5.39805471403348 * u5_t1_h16 + 5.39805471403348 * u5_t3_h16 + 5.39805471403348 * u5_t4_h16 + 5.39805471403348 * u5_t5_h16 + 5.39805471403348 * u5_t6_h16 + 5.39805471403348 * u5_t8_h16 + 5.39805471403348 * u5_t9_h16 + 6.66347694016676 * u5_t1_h17 + 6.66347694016676 * u5_t5_h17 + 6.66347694016676 * u5_t6_h17 + 6.66347694016676 * u5_t8_h17 + 6.66347694016676 * u5_t9_h17 + 6.66347694016676 * u5_t10_h17 + 6.06929245989174 * u5_t1_h18 + 6.06929245989174 * u5_t2_h18 + 6.06929245989174 * u5_t5_h18 + 6.06929245989174 * u5_t6_h18 + 6.06929245989174 * u5_t9_h18 + 6.06929245989174 * u5_t10_h18 + 5.61681122482991 * u5_t1_h19 + 5.61681122482991 * u5_t2_h19 + 5.61681122482991 * u5_t5_h19 + 5.61681122482991 * u5_t9_h19 + 5.61681122482991 * u5_t10_h19 + 5.85714423642274 * u5_t1_h20 + 5.85714423642274 * u5_t2_h20 + 5.85714423642274 * u5_t5_h20 + 5.85714423642274 * u5_t9_h20 + 5.85714423642274 * u5_t10_h20 + 5.34619491856112 * u5_t2_h21 + 5.34619491856112 * u5_t5_h21 + 5.34619491856112 * u5_t9_h21 + 5.34619491856112 * u5_t10_h21 + 5.65352267332662 * u5_t2_h22 + 5.65352267332662 * u5_t5_h22 + 5.65352267332662 * u5_t9_h22 + 5.65352267332662 * u5_t10_h22 + 5.11311264895507 * u5_t5_h23 + 5.11311264895507 * u5_t9_h23 + 5.11311264895507 * u5_t10_h23;
0 <= u5_t1_h4 <= 1;
0 <= u5_t1_h5 <= 1;
0 <= u5_t1_h6 <= 1;
0 <= u5_t1_h7 <= 1;
0 <= u5_t1_h8 <= 1;
0 <= u5_t1_h9 <= 1;
0 <= u5_t1_h10 <= 1;
0 <= u5_t1_h11 <= 1;
0 <= u5_t1_h12 <= 1;
0 <= u5_t1_h13 <= 1;
0 <= u5_t1_h14 <= 1;
0 <= u5_t1_h15 <= 1;
0 <= u5_t1_h16 <= 1;
0 <= u5_t1_h17 <= 1;
0 <= u5_t1_h18 <= 1;
0 <= u5_t1_h19 <= 1;
0 <= u5_t1_h20 <= 1;
u5_t1_h4 + u5_t1_h5 + u5_t1_h6 + u5_t1_h7 + u5_t1_h8 + u5_t1_h9 + u5_t1_h10 + u5_t1_h11 + u5_t1_h12 + u5_t1_h13 + u5_t1_h14 + u5_t1_h15 + u5_t1_h16 + u5_t1_h17 + u5_t1_h18 + u5_t1_h19 + u5_t1_h20 = 1;
0 <= u5_t2_h18 <= 1;
0 <= u5_t2_h19 <= 1;
0 <= u5_t2_h20 <= 1;
0 <= u5_t2_h21 <= 1;
0 <= u5_t2_h22 <= 1;
u5_t2_h18 + u5_t2_h19 + u5_t2_h20 + u5_t2_h21 + u5_t2_h22 = 3;
0 <= u5_t3_h4 <= 1;
0 <= u5_t3_h5 <= 1;
0 <= u5_t3_h6 <= 1;
0 <= u5_t3_h7 <= 1;
0 <= u5_t3_h8 <= 1;
0 <= u5_t3_h9 <= 1;
0 <= u5_t3_h10 <= 1;
0 <= u5_t3_h11 <= 1;
0 <= u5_t3_h12 <= 1;
0 <= u5_t3_h13 <= 1;
0 <= u5_t3_h14 <= 1;
0 <= u5_t3_h15 <= 1;
0 <= u5_t3_h16 <= 1;
u5_t3_h4 + u5_t3_h5 + u5_t3_h6 + u5_t3_h7 + u5_t3_h8 + u5_t3_h9 + u5_t3_h10 + u5_t3_h11 + u5_t3_h12 + u5_t3_h13 + u5_t3_h14 + u5_t3_h15 + u5_t3_h16 = 1;
0 <= u5_t4_h2 <= 1;
0 <= u5_t4_h3 <= 1;
0 <= u5_t4_h4 <= 1;
0 <= u5_t4_h5 <= 1;
0 <= u5_t4_h6 <= 1;
0 <= u5_t4_h7 <= 1;
0 <= u5_t4_h8 <= 1;
0 <= u5_t4_h9 <= 1;
0 <= u5_t4_h10 <= 1;
0 <= u5_t4_h11 <= 1;
0 <= u5_t4_h12 <= 1;
0 <= u5_t4_h13 <= 1;
0 <= u5_t4_h14 <= 1;
0 <= u5_t4_h15 <= 1;
0 <= u5_t4_h16 <= 1;
u5_t4_h2 + u5_t4_h3 + u5_t4_h4 + u5_t4_h5 + u5_t4_h6 + u5_t4_h7 + u5_t4_h8 + u5_t4_h9 + u5_t4_h10 + u5_t4_h11 + u5_t4_h12 + u5_t4_h13 + u5_t4_h14 + u5_t4_h15 + u5_t4_h16 = 3;
0 <= u5_t5_h16 <= 1;
0 <= u5_t5_h17 <= 1;
0 <= u5_t5_h18 <= 1;
0 <= u5_t5_h19 <= 1;
0 <= u5_t5_h20 <= 1;
0 <= u5_t5_h21 <= 1;
0 <= u5_t5_h22 <= 1;
0 <= u5_t5_h23 <= 1;
u5_t5_h16 + u5_t5_h17 + u5_t5_h18 + u5_t5_h19 + u5_t5_h20 + u5_t5_h21 + u5_t5_h22 + u5_t5_h23 = 2;
0 <= u5_t6_h6 <= 1;
0 <= u5_t6_h7 <= 1;
0 <= u5_t6_h8 <= 1;
0 <= u5_t6_h9 <= 1;
0 <= u5_t6_h10 <= 1;
0 <= u5_t6_h11 <= 1;
0 <= u5_t6_h12 <= 1;
0 <= u5_t6_h13 <= 1;
0 <= u5_t6_h14 <= 1;
0 <= u5_t6_h15 <= 1;
0 <= u5_t6_h16 <= 1;
0 <= u5_t6_h17 <= 1;
0 <= u5_t6_h18 <= 1;
u5_t6_h6 + u5_t6_h7 + u5_t6_h8 + u5_t6_h9 + u5_t6_h10 + u5_t6_h11 + u5_t6_h12 + u5_t6_h13 + u5_t6_h14 + u5_t6_h15 + u5_t6_h16 + u5_t6_h17 + u5_t6_h18 = 2;
0 <= u5_t7_h2 <= 1;
0 <= u5_t7_h3 <= 1;
0 <= u5_t7_h4 <= 1;
0 <= u5_t7_h5 <= 1;
0 <= u5_t7_h6 <= 1;
u5_t7_h2 + u5_t7_h3 + u5_t7_h4 + u5_t7_h5 + u5_t7_h6 = 1;
0 <= u5_t8_h13 <= 1;
0 <= u5_t8_h14 <= 1;
0 <= u5_t8_h15 <= 1;
0 <= u5_t8_h16 <= 1;
0 <= u5_t8_h17 <= 1;
u5_t8_h13 + u5_t8_h14 + u5_t8_h15 + u5_t8_h16 + u5_t8_h17 = 3;
0 <= u5_t9_h15 <= 1;
0 <= u5_t9_h16 <= 1;
0 <= u5_t9_h17 <= 1;
0 <= u5_t9_h18 <= 1;
0 <= u5_t9_h19 <= 1;
0 <= u5_t9_h20 <= 1;
0 <= u5_t9_h21 <= 1;
0 <= u5_t9_h22 <= 1;
0 <= u5_t9_h23 <= 1;
u5_t9_h15 + u5_t9_h16 + u5_t9_h17 + u5_t9_h18 + u5_t9_h19 + u5_t9_h20 + u5_t9_h21 + u5_t9_h22 + u5_t9_h23 = 1;
0 <= u5_t10_h17 <= 1;
0 <= u5_t10_h18 <= 1;
0 <= u5_t10_h19 <= 1;
0 <= u5_t10_h20 <= 1;
0 <= u5_t10_h21 <= 1;
0 <= u5_t10_h22 <= 1;
0 <= u5_t10_h23 <= 1;
u5_t10_h17 + u5_t10_h18 + u5_t10_h19 + u5_t10_h20 + u5_t10_h21 + u5_t10_h22 + u5_t10_h23 = 1;
